c Reduced graph for GEOM50_0 generated by Cyril Grelier
p edge 48 125
e 1 2
e 1 5
e 1 6
e 1 7
e 1 8
e 1 16
e 1 18
e 1 30
e 1 41
e 2 5
e 2 6
e 2 7
e 2 8
e 2 16
e 2 18
e 2 38
e 3 4
e 3 11
e 3 13
e 3 15
e 3 19
e 3 21
e 3 27
e 3 31
e 4 11
e 4 13
e 4 19
e 4 31
e 4 44
e 4 47
e 5 6
e 5 8
e 5 18
e 5 28
e 5 42
e 6 7
e 6 8
e 6 18
e 6 42
e 7 8
e 7 10
e 7 16
e 7 38
e 8 28
e 8 38
e 9 22
e 9 23
e 9 25
e 9 26
e 9 29
e 9 42
e 10 12
e 10 14
e 10 16
e 10 34
e 10 43
e 11 27
e 11 31
e 11 37
e 11 46
e 12 14
e 12 16
e 12 30
e 12 41
e 12 43
e 13 15
e 13 19
e 13 21
e 13 33
e 14 16
e 14 30
e 14 34
e 14 43
e 15 19
e 15 21
e 15 27
e 15 33
e 17 20
e 17 24
e 17 32
e 17 35
e 17 39
e 17 40
e 18 30
e 18 41
e 19 21
e 19 33
e 20 24
e 20 32
e 20 35
e 20 37
e 20 40
e 21 33
e 22 23
e 22 25
e 22 26
e 22 29
e 23 25
e 23 26
e 23 29
e 24 32
e 24 35
e 24 40
e 25 26
e 25 29
e 26 29
e 27 31
e 27 37
e 28 42
e 28 44
e 28 47
e 30 41
e 31 46
e 32 37
e 32 40
e 34 43
e 34 45
e 35 39
e 36 38
e 36 39
e 36 45
e 36 48
e 39 46
e 44 47
e 45 48
